branch-and-cut/resultados/B/b09.sol
220
50
32 31
7 72
9 45
54 65
73 20
20 69
9 54
14 71
42 57
26 42
5 13
62 38
33 11
32 70
10 73
9 26
2 75
7 62
8 33
14 73
14 24
57 53
29 46
48 59
73 58
2 71
13 65
50 29
51 36
54 63
10 32
55 58
74 29
73 67
5 51
42 34
7 30
24 49
55 21
75 64
8 68
41 68
65 4
31 42
40 48
14 38
29 63
48 67
10 28
54 68
